StudentsNr = 10;
InstructorsNr = 45;
DaysNr = 1;
SlotsPerDay = 10;
AvailabilitySlotsLenght = 1;
RoomNr = 1;
ProgrammNr = 2;
DegreeNr = 2;
RolesNr = 2;
CoursesNr = 7;
InstructorsProgramm = [{1, 2}, {1}, {1}, {1}, {2}, {2}, {1}, {2}, {1}, {2}, {1, 2}, {2}, {2}, {2}, {1}, {2}, {1}, {2}, {2}, {1}, {1}, {1, 2}, {2}, {2}, {2}, {2}, {1, 2}, {2}, {2}, {2}, {2}, {1, 2}, {1, 2}, {1}, {1, 2}, {1}, {2}, {2}, {1, 2}, {1, 2}, {1, 2}, {2}, {1, 2}, {1}, {2}];
InstructorRolesPerProgramm = [|{7, 9, 15, 17, 20, 22, 27, 32, 34, 39, 40}, {1, 4, 9, 15, 22, 27, 32, 35, 36, 41, 43}|{5, 6, 10, 12, 14, 16, 18, 22, 26, 27, 29, 30, 32, 38, 39, 40, 45}, {1, 6, 12, 18, 19, 22, 24, 27, 28, 32, 35, 37, 41, 42, 43, 45}|];
InstructorsAvailability = [|1, 1, 1, 1, 1, 0, 0, 0, 1, 1, |1, 1, 1, 1, 1, 1, 1, 1, 1, 1, |0, 0, 1, 1, 1, 1, 1, 0, 1, 1, |0, 1, 1, 1, 1, 1, 1, 1, 0, 1, |0, 0, 0, 0, 0, 1, 1, 1, 1, 1, |0, 0, 0, 1, 0, 1, 1, 0, 1, 1, |1, 1, 1, 1, 1, 1, 0, 1, 1, 1, |0, 1, 1, 1, 1, 1, 1, 1, 1, 1, |0, 1, 0, 1, 1, 1, 1, 1, 1, 1, |0, 1, 1, 1, 1, 1, 1, 0, 1, 1, |1, 1, 0, 0, 0, 1, 1, 1, 1, 0, |1, 1, 1, 1, 1, 1, 0, 1, 1, 1, |0, 1, 0, 0, 1, 1, 1, 1, 1, 0, |1, 1, 1, 1, 0, 1, 1, 1, 1, 1, |0, 1, 1, 1, 1, 0, 0, 0, 0, 1, |1, 1, 1, 1, 1, 1, 1, 1, 1, 1, |1, 1, 1, 1, 1, 1, 1, 1, 1, 1, |1, 1, 1, 1, 0, 1, 0, 0, 1, 1, |1, 1, 0, 1, 1, 1, 1, 1, 1, 1, |0, 1, 1, 1, 1, 1, 1, 1, 1, 1, |0, 1, 1, 0, 1, 1, 1, 1, 1, 1, |1, 1, 1, 1, 1, 0, 1, 1, 1, 1, |0, 0, 1, 1, 1, 1, 0, 1, 1, 1, |1, 1, 1, 1, 1, 1, 1, 1, 1, 1, |1, 1, 1, 1, 1, 1, 1, 1, 1, 1, |1, 1, 1, 1, 1, 1, 1, 1, 1, 0, |0, 1, 1, 1, 0, 1, 1, 1, 1, 1, |1, 1, 1, 0, 0, 0, 1, 1, 1, 1, |1, 1, 1, 1, 1, 1, 1, 1, 1, 1, |1, 0, 1, 0, 1, 1, 1, 1, 1, 1, |0, 0, 1, 0, 1, 1, 1, 1, 1, 1, |0, 0, 1, 1, 1, 0, 0, 1, 1, 1, |1, 1, 1, 1, 1, 1, 0, 0, 0, 1, |1, 1, 0, 1, 1, 1, 1, 1, 1, 1, |1, 0, 1, 1, 1, 1, 1, 1, 1, 1, |1, 1, 1, 1, 1, 1, 1, 1, 0, 1, |1, 1, 1, 1, 1, 1, 1, 1, 1, 1, |1, 1, 1, 1, 1, 1, 1, 1, 1, 1, |1, 1, 1, 1, 1, 1, 1, 1, 1, 1, |0, 1, 1, 1, 1, 1, 1, 0, 0, 1, |0, 1, 1, 1, 1, 1, 1, 1, 1, 1, |1, 1, 1, 1, 1, 1, 1, 1, 1, 1, |0, 1, 0, 1, 0, 0, 1, 1, 0, 1, |0, 1, 1, 1, 1, 1, 1, 1, 1, 1, |1, 0, 1, 1, 1, 1, 1, 1, 1, 1|];
StudentsProgramm = [1, 2, 2, 1, 1, 2, 2, 1, 2, 1];
StudentsDegree = [2, 2, 1, 2, 2, 1, 1, 1, 2, 1];
StudentsSupervisorId = [43, 45, 37, 44, 40, 42, 41, 41, 32, 33];
StudentsCourseIds = [{2, 4, 6}, {4, 5, 6}, {1, 2, 3, 4, 5, 6}, {1, 4, 6}, {1, 6, 7}, {1, 2, 3, 5, 6, 7}, {1, 2, 3, 5, 6, 7}, {2, 3, 4, 5, 6, 7}, {3, 4, 6}, {2, 3, 4, 5, 6, 7}];
StudentsAvailability = [|1, 1, 1, 1, 1, 1, 1, 1, 1, 0, |1, 1, 1, 1, 1, 1, 1, 1, 1, 1, |1, 1, 1, 1, 1, 1, 1, 1, 1, 1, |1, 1, 1, 0, 1, 1, 1, 1, 0, 1, |1, 1, 1, 1, 1, 1, 1, 1, 1, 1, |1, 1, 1, 1, 1, 1, 1, 1, 0, 1, |1, 1, 0, 0, 0, 0, 1, 1, 1, 1, |1, 1, 1, 1, 1, 1, 0, 1, 1, 1, |1, 1, 1, 1, 1, 0, 1, 1, 0, 0, |1, 1, 1, 1, 1, 1, 1, 1, 1, 1|];
TheoryticalMinCard = [0, 0, 0, 1, 0, 0, 0, 0, 0, 0];
CoursesInstructorIds = [{4, 5, 9, 10, 11, 12, 13, 14, 15, 16, 17, 18, 19, 21, 23, 24, 25, 26, 27, 28, 30, 33, 35, 37, 38, 41, 42, 43}, {1, 2, 4, 6, 11, 13, 14, 15, 16, 18, 19, 20, 21, 22, 25, 26, 28, 29, 30, 31, 34, 35, 36, 38, 43, 45}, {3, 4, 5, 9, 10, 11, 12, 13, 14, 15, 16, 18, 19, 21, 22, 24, 26, 27, 28, 30, 31, 33, 34, 35, 37, 38, 39, 41, 43, 45}, {7, 10, 17, 18, 24, 29, 37, 43}, {1, 5, 6, 8, 12, 19, 20, 24, 25, 26, 28, 34, 35, 36, 38, 40}, {5, 12, 13, 14, 15, 24, 30, 31, 39, 40, 42}, {4, 7, 13, 17, 23, 30, 38, 41, 44, 45}];
RolesDemands = [7, 11];
RolesContinuity = [];
ExamLen = [2, 2, 1, 2, 2, 1, 1, 1, 2, 1];
LunchTsMinLen = 0;
LunchStarts = [4..6];
SupervisorAvailable = 5;
OptimalLunchLenght = [0, 0];
OptimalStartTs = [1, 0];
OptimalFinishTs = [1, 10];
MinimizeRooms = 300;
RolesSoftContinuity = [|1, 2|4, 1|];
SameDegreeInRoom = 0;
Mergeability = 0;
